column=9;
row=9;
left=[0, 0, 0, 0, 0, 4, 0, 0, 2];
right=[1, 4, 4, 2, 2, 4, 3, 0, 7];
top=[0, 0, 0, 2, 3, 0, 0, 0, 1];
bottom=[3, 0, 0, 0, 2, 0, 3, 0, 4];
Board=[|0,7,0,0,5,3,0,1,9|0,6,0,0,8,0,0,3,4|3,9,2,1,7,0,8,0,0|0,2,7,0,0,0,1,4,0|0,0,0,0,0,0,5,9,3|1,0,5,0,0,0,6,0,2|0,5,3,0,0,0,9,8,6|8,0,0,3,0,0,4,0,7|0,0,0,8,6,0,0,0,1|]